words_hard_train/4577.qaiger
aag 173 15 0 1 158
2
4
8
12
16
20
24
28
32
46
66
86
106
126
146
347
6 3 5
10 6 9
14 10 13
18 14 17
22 18 21
26 22 25
30 27 29
34 32 2
36 29 4
38 2 4
40 39 7
42 40 28
44 37 43
48 44 47
50 45 46
52 49 51
54 34 52
56 55 51
58 7 28
60 59 9
62 58 8
64 61 63
68 65 67
70 64 66
72 69 71
74 57 72
76 75 71
78 11 28
80 79 13
82 78 12
84 81 83
88 85 87
90 84 86
92 89 91
94 77 92
96 95 91
98 15 28
100 99 17
102 98 16
104 101 103
108 105 107
110 104 106
112 109 111
114 97 112
116 115 111
118 19 28
120 119 21
122 118 20
124 121 123
128 125 127
130 124 126
132 129 131
134 117 132
136 135 131
138 23 28
140 139 25
142 138 24
144 141 143
148 144 146
150 145 147
152 149 151
154 137 152
156 155 149
158 31 156
160 30 157
162 159 161
164 35 2
166 35 53
168 167 55
170 169 41
172 168 40
174 171 173
176 164 174
178 177 173
180 56 73
182 181 75
184 7 8
186 185 11
188 183 187
190 182 186
192 189 191
194 179 192
196 195 191
198 76 93
200 199 95
202 11 12
204 203 15
206 201 205
208 200 204
210 207 209
212 197 210
214 213 209
216 96 113
218 217 115
220 15 16
222 221 19
224 219 223
226 218 222
228 225 227
230 215 228
232 231 227
234 116 133
236 235 135
238 19 20
240 239 23
242 237 241
244 236 240
246 243 245
248 233 246
250 249 245
252 136 153
254 155 253
256 23 24
258 27 257
260 255 259
262 254 258
264 261 263
266 251 264
268 267 263
270 162 268
272 163 269
274 271 273
276 250 265
278 277 267
280 279 147
282 278 146
284 281 283
286 274 285
288 232 247
290 289 249
292 291 126
294 214 229
296 295 231
298 296 107
300 293 299
302 178 193
304 303 195
306 304 66
308 305 67
310 307 309
312 196 211
314 313 213
316 315 86
318 311 317
320 300 318
322 165 175
324 323 177
326 324 47
328 325 46
330 327 329
332 314 87
334 330 333
336 297 106
338 290 127
340 337 339
342 334 340
344 320 342
346 286 344
i0 1 x1[0]
i1 1 x1[1]
i2 1 x1[2]
i3 1 x1[3]
i4 1 x1[4]
i5 1 x1[5]
i6 1 x1[6]
i7 1 x1[7]
i8 2 y1[0]
i9 2 y1[1]
i10 2 y1[2]
i11 2 y1[3]
i12 2 y1[4]
i13 2 y1[5]
i14 2 y1[6]
o0 bool[0]
c
simplified
  !=
    subtract
      add
        abs
          1 x1
        2 y1
      1 x1
    2 y1
