words_hard_train/4577.qaiger.qdimacs
p cnf 173 475
a 1 2 4 6 8 10 12 14 0
e 3 5 7 9 11 13 15 16 17 18 19 20 21 22 23 24 25 26 27 28 29 30 31 32 33 34 35 36 37 38 39 40 41 42 43 44 45 46 47 48 49 50 51 52 53 54 55 56 57 58 59 60 61 62 63 64 65 66 67 68 69 70 71 72 73 74 75 76 77 78 79 80 81 82 83 84 85 86 87 88 89 90 91 92 93 94 95 96 97 98 99 100 101 102 103 104 105 106 107 108 109 110 111 112 113 114 115 116 117 118 119 120 121 122 123 124 125 126 127 128 129 130 131 132 133 134 135 136 137 138 139 140 141 142 143 144 145 146 147 148 149 150 151 152 153 154 155 156 157 158 159 160 161 162 163 164 165 166 167 168 169 170 171 172 173 0
1 2 3 0
-1 -3 0
-2 -3 0
-3 4 5 0
3 -5 0
-4 -5 0
-5 6 7 0
5 -7 0
-6 -7 0
-7 8 9 0
7 -9 0
-8 -9 0
-9 10 11 0
9 -11 0
-10 -11 0
-11 12 13 0
11 -13 0
-12 -13 0
13 14 15 0
-13 -15 0
-14 -15 0
-16 -1 17 0
16 -17 0
1 -17 0
14 -2 18 0
-14 -18 0
2 -18 0
-1 -2 19 0
1 -19 0
2 -19 0
19 3 20 0
-19 -20 0
-3 -20 0
-20 -14 21 0
20 -21 0
14 -21 0
18 21 22 0
-18 -22 0
-21 -22 0
-22 23 24 0
22 -24 0
-23 -24 0
22 -23 25 0
-22 -25 0
23 -25 0
24 25 26 0
-24 -26 0
-25 -26 0
-17 -26 27 0
17 -27 0
26 -27 0
27 25 28 0
-27 -28 0
-25 -28 0
3 -14 29 0
-3 -29 0
14 -29 0
29 4 30 0
-29 -30 0
-4 -30 0
-29 -4 31 0
29 -31 0
4 -31 0
30 31 32 0
-30 -32 0
-31 -32 0
32 33 34 0
-32 -34 0
-33 -34 0
-32 -33 35 0
32 -35 0
33 -35 0
34 35 36 0
-34 -36 0
-35 -36 0
28 -36 37 0
-28 -37 0
36 -37 0
37 35 38 0
-37 -38 0
-35 -38 0
5 -14 39 0
-5 -39 0
14 -39 0
39 6 40 0
-39 -40 0
-6 -40 0
-39 -6 41 0
39 -41 0
6 -41 0
40 41 42 0
-40 -42 0
-41 -42 0
42 43 44 0
-42 -44 0
-43 -44 0
-42 -43 45 0
42 -45 0
43 -45 0
44 45 46 0
-44 -46 0
-45 -46 0
38 -46 47 0
-38 -47 0
46 -47 0
47 45 48 0
-47 -48 0
-45 -48 0
7 -14 49 0
-7 -49 0
14 -49 0
49 8 50 0
-49 -50 0
-8 -50 0
-49 -8 51 0
49 -51 0
8 -51 0
50 51 52 0
-50 -52 0
-51 -52 0
52 53 54 0
-52 -54 0
-53 -54 0
-52 -53 55 0
52 -55 0
53 -55 0
54 55 56 0
-54 -56 0
-55 -56 0
48 -56 57 0
-48 -57 0
56 -57 0
57 55 58 0
-57 -58 0
-55 -58 0
9 -14 59 0
-9 -59 0
14 -59 0
59 10 60 0
-59 -60 0
-10 -60 0
-59 -10 61 0
59 -61 0
10 -61 0
60 61 62 0
-60 -62 0
-61 -62 0
62 63 64 0
-62 -64 0
-63 -64 0
-62 -63 65 0
62 -65 0
63 -65 0
64 65 66 0
-64 -66 0
-65 -66 0
58 -66 67 0
-58 -67 0
66 -67 0
67 65 68 0
-67 -68 0
-65 -68 0
11 -14 69 0
-11 -69 0
14 -69 0
69 12 70 0
-69 -70 0
-12 -70 0
-69 -12 71 0
69 -71 0
12 -71 0
70 71 72 0
-70 -72 0
-71 -72 0
-72 -73 74 0
72 -74 0
73 -74 0
72 73 75 0
-72 -75 0
-73 -75 0
74 75 76 0
-74 -76 0
-75 -76 0
68 -76 77 0
-68 -77 0
76 -77 0
77 74 78 0
-77 -78 0
-74 -78 0
15 -78 79 0
-15 -79 0
78 -79 0
-15 78 80 0
15 -80 0
-78 -80 0
79 80 81 0
-79 -81 0
-80 -81 0
17 -1 82 0
-17 -82 0
1 -82 0
17 26 83 0
-17 -83 0
-26 -83 0
83 27 84 0
-83 -84 0
-27 -84 0
84 20 85 0
-84 -85 0
-20 -85 0
-84 -20 86 0
84 -86 0
20 -86 0
85 86 87 0
-85 -87 0
-86 -87 0
-82 -87 88 0
82 -88 0
87 -88 0
88 86 89 0
-88 -89 0
-86 -89 0
-28 36 90 0
28 -90 0
-36 -90 0
90 37 91 0
-90 -91 0
-37 -91 0
3 -4 92 0
-3 -92 0
4 -92 0
92 5 93 0
-92 -93 0
-5 -93 0
91 93 94 0
-91 -94 0
-93 -94 0
-91 -93 95 0
91 -95 0
93 -95 0
94 95 96 0
-94 -96 0
-95 -96 0
89 -96 97 0
-89 -97 0
96 -97 0
97 95 98 0
-97 -98 0
-95 -98 0
-38 46 99 0
38 -99 0
-46 -99 0
99 47 100 0
-99 -100 0
-47 -100 0
5 -6 101 0
-5 -101 0
6 -101 0
101 7 102 0
-101 -102 0
-7 -102 0
100 102 103 0
-100 -103 0
-102 -103 0
-100 -102 104 0
100 -104 0
102 -104 0
103 104 105 0
-103 -105 0
-104 -105 0
98 -105 106 0
-98 -106 0
105 -106 0
106 104 107 0
-106 -107 0
-104 -107 0
-48 56 108 0
48 -108 0
-56 -108 0
108 57 109 0
-108 -109 0
-57 -109 0
7 -8 110 0
-7 -110 0
8 -110 0
110 9 111 0
-110 -111 0
-9 -111 0
109 111 112 0
-109 -112 0
-111 -112 0
-109 -111 113 0
109 -113 0
111 -113 0
112 113 114 0
-112 -114 0
-113 -114 0
107 -114 115 0
-107 -115 0
114 -115 0
115 113 116 0
-115 -116 0
-113 -116 0
-58 66 117 0
58 -117 0
-66 -117 0
117 67 118 0
-117 -118 0
-67 -118 0
9 -10 119 0
-9 -119 0
10 -119 0
119 11 120 0
-119 -120 0
-11 -120 0
118 120 121 0
-118 -121 0
-120 -121 0
-118 -120 122 0
118 -122 0
120 -122 0
121 122 123 0
-121 -123 0
-122 -123 0
116 -123 124 0
-116 -124 0
123 -124 0
124 122 125 0
-124 -125 0
-122 -125 0
-68 76 126 0
68 -126 0
-76 -126 0
77 126 127 0
-77 -127 0
-126 -127 0
11 -12 128 0
-11 -128 0
12 -128 0
13 128 129 0
-13 -129 0
-128 -129 0
127 129 130 0
-127 -130 0
-129 -130 0
-127 -129 131 0
127 -131 0
129 -131 0
130 131 132 0
-130 -132 0
-131 -132 0
125 -132 133 0
-125 -133 0
132 -133 0
133 131 134 0
-133 -134 0
-131 -134 0
-81 -134 135 0
81 -135 0
134 -135 0
81 134 136 0
-81 -136 0
-134 -136 0
135 136 137 0
-135 -137 0
-136 -137 0
-125 132 138 0
125 -138 0
-132 -138 0
138 133 139 0
-138 -139 0
-133 -139 0
139 73 140 0
-139 -140 0
-73 -140 0
-139 -73 141 0
139 -141 0
73 -141 0
140 141 142 0
-140 -142 0
-141 -142 0
-137 142 143 0
137 -143 0
-142 -143 0
-116 123 144 0
116 -144 0
-123 -144 0
144 124 145 0
-144 -145 0
-124 -145 0
145 -63 146 0
-145 -146 0
63 -146 0
-107 114 147 0
107 -147 0
-114 -147 0
147 115 148 0
-147 -148 0
-115 -148 0
-148 53 149 0
148 -149 0
-53 -149 0
146 149 150 0
-146 -150 0
-149 -150 0
-89 96 151 0
89 -151 0
-96 -151 0
151 97 152 0
-151 -152 0
-97 -152 0
-152 -33 153 0
152 -153 0
33 -153 0
152 33 154 0
-152 -154 0
-33 -154 0
153 154 155 0
-153 -155 0
-154 -155 0
-98 105 156 0
98 -156 0
-105 -156 0
156 106 157 0
-156 -157 0
-106 -157 0
157 -43 158 0
-157 -158 0
43 -158 0
155 158 159 0
-155 -159 0
-158 -159 0
-150 -159 160 0
150 -160 0
159 -160 0
82 87 161 0
-82 -161 0
-87 -161 0
161 88 162 0
-161 -162 0
-88 -162 0
-162 23 163 0
162 -163 0
-23 -163 0
162 -23 164 0
-162 -164 0
23 -164 0
163 164 165 0
-163 -165 0
-164 -165 0
-157 43 166 0
157 -166 0
-43 -166 0
-165 166 167 0
165 -167 0
-166 -167 0
148 -53 168 0
-148 -168 0
53 -168 0
-145 63 169 0
145 -169 0
-63 -169 0
168 169 170 0
-168 -170 0
-169 -170 0
-167 -170 171 0
167 -171 0
170 -171 0
-160 -171 172 0
160 -172 0
171 -172 0
-143 -172 173 0
143 -173 0
172 -173 0
-173 0
